12 32 6 10
7 16 6 17 10 7 15 7 4 17 8 17 5 10 3 16 1 6 8 17 10 18 1 20 9 16 16 4 17 12 17 2 
6.46 5.73 7.25 4.38 2.58 4.76 0.15 7.64 0.24 6.4 2.29 5 4.91 0.09 1.85 1.82 6.54 4.95 4.15 4.05 0.05 3.94 5.47 4.62 1.28 2.14 2.16 5.34 2.99 1.99 4.7 6.96 
2.77 4.61 0.74 7.58 0.1 0.41 6.4 4.87 0.21 5.34 0.69 0.94 6.68 7.96 4.85 2.19 0.4 3.03 4.97 3.64 3.85 6.24 7.2 5.72 2.07 3.41 3.43 2.08 2.38 0.74 0.39 1.59 
4.57 6.07 2.51 0.47 6.12 6.1 7.61 4.92 3.97 1.21 2.75 6.3 0.79 2.38 2.03 5.42 4.91 2.33 4.43 4.97 1.68 2.45 5.24 1.56 5.16 0.45 1.85 4.98 1.92 1.62 0.1 0.01 
5.82 2.66 6.29 4.13 0.43 3.03 2.5 5.16 1.93 2.76 2.65 1.97 1.83 3.2 4.72 0.81 6.52 5.02 2.67 0.05 7.85 7.07 1.93 4.7 6.35 4.4 0.47 1.95 7.46 0.47 5.49 4.24 
3.74 0.87 5.16 5.52 2.14 0.07 7 4.48 6.2 3.27 7.11 6.46 6.77 5.98 1.17 7.57 6.43 2.29 0.69 3.57 0.21 2.82 2.66 5.02 3.69 6.49 1.26 3.78 7.25 5.19 2.64 4.79 
6.51 1.66 3.03 4.77 3.9 6.34 7.12 2.11 2.51 3.14 1.76 0.84 7.53 5.47 3.9 2.99 0.44 0.67 6.82 6.72 6.68 2.06 3.22 7.58 4.55 4.8 1.68 4.61 0.76 6.85 4.18 5.48 
4 4 4 4 4 4 4 4 4 4 4 4 4 4 4 4 4 4 4 4 4 4 4 4 4 4 4 4 4 4 4 4 
1.26 5.16 4.59 6.66 5.89 2.33 3.56 7.87 4.92 4.3 7.98 1.24 7.32 7.9 0.6 1.44 0.87 1.46 0.86 2.09 7.88 2.86 6.01 3.08 3.33 1.66 4.32 4.67 2.36 6.65 0.11 0.53 
0.67 4.75 3 0.52 3.19 3.58 5.1 7.99 4.26 6.41 3.66 3.06 6.8 3.26 0.92 1.05 4.4 2.69 2.93 5.89 7.81 6.89 7.14 6.95 1.54 0.52 7.02 7.55 1.01 0.84 4.87 4.42 
0.6 4.63 0.64 6.92 6.38 7.39 4.81 4.6 0.59 7.45 5.27 3.4 6.97 4.27 0.39 4.94 2.48 4.75 2.43 4.17 0.64 5.73 6.94 5.2 2.96 4.13 1.58 4.53 7.22 1.58 7.15 6.55 
5.4 6.94 2.91 7.72 3.07 7.88 7.93 6.63 1.9 1.2 3.09 6.47 3.41 1.69 6.56 4.71 1.52 0.91 3.44 7.31 7.43 4.63 0.31 3.7 2.96 2.55 0.9 3.38 1.71 1.26 6.42 6.75 
1.3 5.18 1.94 3.65 0.35 1.87 6.36 4.59 1.57 6.42 6.71 6.82 5.35 2.27 4.76 7.78 3.82 4.6 0.34 5.29 2.02 6.84 3.69 2.89 2.15 6.81 7.97 2.04 0.7 4.02 2.67 0.8 
1 1 1 1 1 1 1 1 1 1 1 1 1 1 1 1 1 1 1 1 1 1 1 1 1 1 1 1 1 1 1 1 
1 1 1 1 1 1 1 1 1 1 1 1 1 1 1 1 1 1 1 1 1 1 1 1 1 1 1 1 1 1 1 1 
1 1 1 1 1 1 1 1 1 1 1 1 1 1 1 1 1 1 1 1 1 1 1 1 1 1 1 1 1 1 1 1 
1 1 1 1 1 1 1 1 1 1 1 1 1 1 1 1 1 1 1 1 1 1 1 1 1 1 1 1 1 1 1 1 
1 1 1 1 1 1 1 1 1 1 1 1 1 1 1 1 1 1 1 1 1 1 1 1 1 1 1 1 1 1 1 1 
1 1 1 1 1 1 1 1 1 1 1 1 1 1 1 1 1 1 1 1 1 1 1 1 1 1 1 1 1 1 1 1 
1 1 1 1 1 1 1 1 1 1 1 1 1 1 1 1 1 1 1 1 1 1 1 1 1 1 1 1 1 1 1 1 
1 1 1 1 1 1 1 1 1 1 1 1 1 1 1 1 1 1 1 1 1 1 1 1 1 1 1 1 1 1 1 1 
1 1 1 1 1 1 1 1 1 1 1 1 1 1 1 1 1 1 1 1 1 1 1 1 1 1 1 1 1 1 1 1 
1 1 1 1 1 1 1 1 1 1 1 1 1 1 1 1 1 1 1 1 1 1 1 1 1 1 1 1 1 1 1 1 
1 1 1 1 1 1 1 1 1 1 1 1 1 1 1 1 1 1 1 1 1 1 1 1 1 1 1 1 1 1 1 1 
1 1 1 1 1 1 1 1 1 1 1 1 1 1 1 1 1 1 1 1 1 1 1 1 1 1 1 1 1 1 1 1 
0.01 0.01 0.01 0.01 0.01 0.01 0.01 0.01 0.01 0.01 0.01 0.01 0.01 0.01 0.01 0.01 0.01 0.01 0.01 0.01 0.01 0.01 0.01 0.01 0.01 0.01 0.01 0.01 0.01 0.01 0.01 0.01 
0.02 0.02 0.02 0.02 0.02 0.02 0.02 0.02 0.02 0.02 0.02 0.02 0.02 0.02 0.02 0.02 0.02 0.02 0.02 0.02 0.02 0.02 0.02 0.02 0.02 0.02 0.02 0.02 0.02 0.02 0.02 0.02 
0.03 0.03 0.03 0.03 0.03 0.03 0.03 0.03 0.03 0.03 0.03 0.03 0.03 0.03 0.03 0.03 0.03 0.03 0.03 0.03 0.03 0.03 0.03 0.03 0.03 0.03 0.03 0.03 0.03 0.03 0.03 0.03 
0.04 0.04 0.04 0.04 0.04 0.04 0.04 0.04 0.04 0.04 0.04 0.04 0.04 0.04 0.04 0.04 0.04 0.04 0.04 0.04 0.04 0.04 0.04 0.04 0.04 0.04 0.04 0.04 0.04 0.04 0.04 0.04 
0.05 0.05 0.05 0.05 0.05 0.05 0.05 0.05 0.05 0.05 0.05 0.05 0.05 0.05 0.05 0.05 0.05 0.05 0.05 0.05 0.05 0.05 0.05 0.05 0.05 0.05 0.05 0.05 0.05 0.05 0.05 0.05 
0.06 0.06 0.06 0.06 0.06 0.06 0.06 0.06 0.06 0.06 0.06 0.06 0.06 0.06 0.06 0.06 0.06 0.06 0.06 0.06 0.06 0.06 0.06 0.06 0.06 0.06 0.06 0.06 0.06 0.06 0.06 0.06 
0.07 0.07 0.07 0.07 0.07 0.07 0.07 0.07 0.07 0.07 0.07 0.07 0.07 0.07 0.07 0.07 0.07 0.07 0.07 0.07 0.07 0.07 0.07 0.07 0.07 0.07 0.07 0.07 0.07 0.07 0.07 0.07 
0.2 0.2 0.2 0.2 0.2 0.2 0.2 0.2 0.2 0.2 0.2 0.2 0.2 0.2 0.2 0.2 0.2 0.2 0.2 0.2 0.2 0.2 0.2 0.2 0.2 0.2 0.2 0.2 0.2 0.2 0.2 0.2 
0.4 0.4 0.4 0.4 0.4 0.4 0.4 0.4 0.4 0.4 0.4 0.4 0.4 0.4 0.4 0.4 0.4 0.4 0.4 0.4 0.4 0.4 0.4 0.4 0.4 0.4 0.4 0.4 0.4 0.4 0.4 0.4 
0.6 0.6 0.6 0.6 0.6 0.6 0.6 0.6 0.6 0.6 0.6 0.6 0.6 0.6 0.6 0.6 0.6 0.6 0.6 0.6 0.6 0.6 0.6 0.6 0.6 0.6 0.6 0.6 0.6 0.6 0.6 0.6 
0.8 0.8 0.8 0.8 0.8 0.8 0.8 0.8 0.8 0.8 0.8 0.8 0.8 0.8 0.8 0.8 0.8 0.8 0.8 0.8 0.8 0.8 0.8 0.8 0.8 0.8 0.8 0.8 0.8 0.8 0.8 0.8 
1 1 1 1 1 1 1 1 1 1 1 1 1 1 1 1 1 1 1 1 1 1 1 1 1 1 1 1 1 1 1 1 
